sat
(
  (define-fun G () String
    "aa")
  (define-fun I () String
    "aa")
  (define-fun E () String
    "")
  (define-fun H () String
    "")
  (define-fun K () String
    "aa")
  (define-fun M () String
    "aa")
)
